223 5
10 10 10 10 10 

0 0 0 0 0 0 1 2 
0 0 0 0 0 0 1 3 
8 0 0 0 0 1 1 4 
4 0 0 0 0 2 2 10 5 
3 0 0 0 0 4 1 6 
2 0 0 0 0 7 2 9 7 
6 0 0 0 0 8 1 8 
6 0 0 0 0 4 1 12 
8 0 0 0 0 8 1 11 
5 0 0 0 0 7 1 11 
8 0 0 0 0 5 1 13 
1 0 0 0 0 4 1 13 
0 0 0 0 0 0 1 14 
0 0 0 0 0 0 1 15 
6 1 0 0 0 0 3 24 21 16 
7 3 0 0 0 0 2 23 17 
5 5 0 0 0 0 1 18 
2 4 0 0 0 0 1 19 
3 7 0 0 0 0 1 20 
1 5 0 0 0 0 1 22 
4 6 0 0 0 0 1 22 
9 9 0 0 0 0 1 25 
9 5 0 0 0 0 1 25 
1 5 0 0 0 0 1 25 
0 0 0 0 0 0 3 26 38 50 
0 0 0 0 0 0 3 27 33 36 
3 1 0 0 0 0 1 28 
9 6 0 0 0 0 1 29 
1 2 0 0 0 0 2 35 30 
9 5 0 0 0 0 2 31 83 
4 9 0 0 0 0 1 32 
7 8 0 0 0 0 1 34 
9 4 0 0 0 0 1 34 
5 8 0 0 0 0 1 37 
9 4 0 0 0 0 1 37 
10 3 0 0 0 0 1 37 
0 0 0 0 0 0 1 62 
0 0 0 0 0 0 1 39 
2 0 0 0 0 1 1 40 
10 0 0 0 0 8 2 42 41 
10 0 0 0 0 5 1 43 
9 0 0 0 0 8 2 43 207 
2 0 0 0 0 2 2 45 44 
8 0 0 0 0 5 2 47 46 
6 0 0 0 0 5 2 47 46 
3 0 0 0 0 3 1 48 
10 0 0 0 0 4 1 48 
1 0 0 0 0 9 1 49 
0 0 0 0 0 0 1 62 
0 0 0 0 0 0 2 51 52 
4 2 0 0 0 0 2 58 53 
10 4 0 0 0 0 2 58 55 
6 4 0 0 0 0 1 54 
10 4 0 0 0 0 1 56 
6 4 0 0 0 0 1 56 
3 6 0 0 0 0 1 57 
10 10 0 0 0 0 1 59 
7 2 0 0 0 0 2 59 109 
6 9 0 0 0 0 1 60 
6 5 0 0 0 0 1 61 
0 0 0 0 0 0 1 62 
0 0 0 0 0 0 5 63 85 107 119 141 
0 0 0 0 0 0 2 64 66 
10 0 2 0 0 1 2 69 65 
7 0 3 0 0 7 1 67 
10 0 3 0 0 5 1 67 
10 0 4 0 0 9 1 68 
4 0 8 0 0 4 2 70 172 
7 0 5 0 0 6 1 70 
8 0 5 0 0 8 1 71 
6 0 10 0 0 6 2 74 72 
2 0 4 0 0 2 1 73 
3 0 3 0 0 3 2 80 75 
2 0 7 0 0 7 2 80 75 
7 0 4 0 0 4 1 76 
8 0 4 0 0 3 2 83 77 
4 0 4 0 0 6 1 78 
9 0 10 0 0 5 1 79 
7 0 4 0 0 2 1 81 
5 0 4 0 0 6 1 81 
1 0 6 0 0 2 1 82 
6 0 5 0 0 5 1 84 
5 0 5 0 0 9 1 84 
0 0 0 0 0 0 1 223 
0 0 0 0 0 0 3 86 97 105 
9 0 2 0 1 0 1 87 
8 0 3 0 7 0 2 95 88 
1 0 9 0 6 0 2 104 89 
10 0 6 0 3 0 1 90 
8 0 4 0 6 0 1 91 
5 0 7 0 6 0 2 103 92 
10 0 5 0 6 0 1 93 
2 0 4 0 3 0 1 94 
3 0 4 0 6 0 1 96 
10 0 3 0 6 0 1 96 
7 0 5 0 7 0 1 98 
10 0 1 0 3 0 1 98 
5 0 4 0 3 0 1 99 
9 0 8 0 6 0 1 100 
3 0 4 0 7 0 1 101 
1 0 5 0 9 0 1 102 
9 0 9 0 3 0 1 106 
4 0 3 0 4 0 2 106 192 
7 0 4 0 4 0 1 106 
1 0 10 0 4 0 1 106 
0 0 0 0 0 0 1 223 
0 0 0 0 0 0 2 108 109 
1 1 0 0 0 0 2 117 110 
3 7 0 0 0 0 3 117 116 112 
9 6 0 0 0 0 2 116 111 
3 6 0 0 0 0 1 112 
6 6 0 0 0 0 1 113 
2 3 0 0 0 0 2 114 133 
6 5 0 0 0 0 1 115 
10 8 0 0 0 0 1 118 
7 3 0 0 0 0 1 118 
9 5 0 0 0 0 1 118 
0 0 0 0 0 0 5 163 175 187 199 211 
0 0 0 0 0 0 3 120 130 139 
8 0 1 0 1 0 1 121 
5 0 4 0 3 0 1 122 
5 0 6 0 2 0 2 137 123 
9 0 1 0 6 0 1 124 
9 0 4 0 9 0 1 125 
1 0 5 0 4 0 1 126 
5 0 7 0 4 0 2 136 127 
3 0 8 0 4 0 1 128 
2 0 2 0 3 0 1 129 
1 0 4 0 9 0 1 131 
8 0 5 0 2 0 2 138 133 
5 0 8 0 3 0 1 132 
3 0 3 0 7 0 1 133 
10 0 6 0 7 0 1 134 
9 0 3 0 2 0 1 135 
8 0 8 0 5 0 1 140 
3 0 7 0 6 0 1 140 
3 0 7 0 8 0 1 140 
9 0 3 0 10 0 1 140 
10 0 8 0 5 0 1 140 
0 0 0 0 0 0 1 223 
0 0 0 0 0 0 2 142 147 
9 0 1 0 1 0 2 161 143 
3 0 7 0 8 0 2 160 144 
10 0 3 0 8 0 2 149 145 
2 0 7 0 2 0 1 146 
8 0 4 0 8 0 1 148 
3 0 7 0 2 0 1 149 
3 0 2 0 5 0 1 150 
8 0 7 0 5 0 1 150 
6 0 7 0 5 0 1 151 
8 0 4 0 10 0 1 152 
1 0 5 0 6 0 1 153 
2 0 3 0 2 0 2 159 154 
4 0 6 0 10 0 1 155 
10 0 5 0 4 0 1 156 
2 0 6 0 5 0 1 157 
5 0 3 0 3 0 1 158 
2 0 7 0 5 0 1 162 
6 0 6 0 1 0 1 162 
8 0 3 0 6 0 1 162 
4 0 7 0 4 0 1 162 
0 0 0 0 0 0 1 223 
0 0 0 0 0 0 2 164 165 
4 0 0 0 0 1 2 168 166 
6 0 0 0 0 5 2 168 166 
9 0 0 0 0 6 2 173 167 
7 0 0 0 0 7 1 169 
5 0 0 0 0 3 1 169 
4 0 0 0 0 9 1 170 
2 0 0 0 0 5 1 171 
7 0 0 0 0 5 1 172 
5 0 0 0 0 5 1 174 
8 0 0 0 0 4 1 174 
0 0 0 0 0 0 1 223 
0 0 0 0 0 0 2 176 181 
8 1 0 0 0 0 2 185 177 
1 7 0 0 0 0 2 184 178 
1 5 0 0 0 0 1 179 
9 8 0 0 0 0 1 180 
9 2 0 0 0 0 1 182 
6 3 0 0 0 0 1 182 
8 5 0 0 0 0 1 183 
6 5 0 0 0 0 1 186 
3 6 0 0 0 0 1 186 
9 8 0 0 0 0 1 186 
0 0 0 0 0 0 1 223 
0 0 0 0 0 0 1 188 
5 0 0 1 0 0 2 192 189 
5 0 0 3 0 0 1 190 
3 0 0 5 0 0 1 191 
9 0 0 7 0 0 3 197 196 193 
9 0 0 6 0 0 2 197 196 
2 0 0 7 0 0 1 194 
6 0 0 6 0 0 1 195 
1 0 0 6 0 0 1 198 
3 0 0 4 0 0 1 198 
7 0 0 5 0 0 1 198 
0 0 0 0 0 0 1 223 
0 0 0 0 0 0 2 200 204 
9 0 0 1 0 0 2 203 201 
7 0 0 4 0 0 1 202 
10 0 0 5 0 0 2 208 205 
2 0 0 4 0 0 2 208 205 
6 0 0 6 0 0 2 208 205 
2 0 0 3 0 0 1 206 
8 0 0 3 0 0 1 207 
4 0 0 8 0 0 1 209 
8 0 0 9 0 0 1 209 
7 0 0 7 0 0 1 210 
0 0 0 0 0 0 1 223 
0 0 0 0 0 0 2 212 213 
7 0 0 0 0 1 2 216 214 
1 0 0 0 0 6 2 216 214 
5 0 0 0 0 4 1 215 
1 0 0 0 0 7 1 217 
2 0 0 0 0 5 1 217 
9 0 0 0 0 7 1 218 
5 0 0 0 0 6 1 219 
4 0 0 0 0 5 2 221 220 
9 0 0 0 0 4 1 222 
7 0 0 0 0 5 1 222 
0 0 0 0 0 0 1 223 
0 0 0 0 0 0 0 
